(declare-const a Real)
(declare-const b Real)
(declare-const c Real)
(assert (= (+ a b c) 3))
(assert (> a 0))
(assert (> b 0))
(assert (> c 0))
(assert (not (<= (+ 27 (* -6 (pow 3 (/ 1 2)) (pow c (pow (+ 1 a b) -1)) (pow (+ (* (pow a 2) (pow (+ b c) 2)) (* (pow b 2) (pow (+ a c) 2)) (* (pow c 2) (pow (+ a b) 2))) (/ -1 2)) (+ 1 a b) (+ a b c))) 0)))
(check-sat)
(get-model)
(exit)